0 0 0 0
0 1 1 0
0 2 2 0
0 3 0 32
0 4 0 11
0 5 0 7
0 6 0 17
0 7 0 7
0 8 2 11
0 9 0 18
0 10 2 23
0 11 0 13
0 12 2 10
0 13 0 18
0 14 0 14
0 15 0 35
0 16 1 28
0 17 2 37
0 18 1 19
0 19 0 28
0 20 0 46
0 21 0 27
0 22 0 22
0 23 0 47
0 24 0 29
0 25 1 32
0 26 0 37
0 27 1 39
0 28 0 48
0 29 2 43
0 30 2 39
0 31 0 50
